17	4
32	37	42	42	
0	0	0	0	0	3	2	3	4	
2	0	6	7	6	3	7	8	9	
6	0	0	8	1	3	5	13	17	
9	9	2	6	3	3	5	6	10	
9	0	7	0	0	3	15	17	17	
250	1	4	9	10	3	16	17	17	
175	2	9	6	0	3	10	12	17	
250	8	8	0	0	2	13	17	
175	0	1	3	8	3	13	15	17	
125	4	8	0	0	3	11	15	17	
200	3	3	9	8	3	14	17	17	
250	10	0	0	7	3	17	17	17	
2	8	6	4	0	3	14	17	17	
8	2	2	1	9	3	16	17	17	
6	0	8	0	3	2	16	17	
1	5	4	10	0	1	17	
0	0	0	0	0	0	
